(set-logic ALL)
(declare-fun var0 () String)
(assert (str.in_re var0 (re.++ (re.+ (re.union (str.to_re "000") (str.to_re "111"))) (re.++ (re.* (re.union (str.to_re "2") (str.to_re "33"))) (re.++ (re.union (re.+ (str.to_re "44")) (re.+ (str.to_re "5"))) (re.++ (re.+ (re.* (str.to_re "6"))) (re.++ (re.union (re.union (str.to_re "77") (str.to_re "8")) (re.union (str.to_re "99") (str.to_re "aaa"))) (re.++ (re.* (re.* (str.to_re "bb"))) (re.++ (re.union (re.+ (str.to_re "ccc")) (re.+ (str.to_re "d"))) (re.++ (re.+ (re.union (str.to_re "e") (str.to_re "f"))) (re.* (re.union (str.to_re "g") (str.to_re "hhh")))))))))))))
(check-sat)